
Gurobi 9.5.0 (linux64) logging started Wed Nov  8 21:39:52 2023

Set parameter LogFile to value "/lustre1/scratch/348/vsc34888/JointResearch/05.Models/06.Benchmarking/G.Representative_days_based_on_Line_Benefit_NN_OC_fy_2/RTS24_ByStages_nc30/openStarNet_RTS24_ByStages_nc30.log"
Set parameter Method to value 2
Set parameter MIPFocus to value 1
Set parameter Presolve to value 2
Set parameter RINS to value 100
Set parameter MIPGap to value 0.01
Set parameter Threads to value 36
Set parameter TimeLimit to value 604800
Set parameter IterationLimit to value 760000000
Gurobi Optimizer version 9.5.0 build v9.5.0rc5 (linux64)
Thread count: 36 physical cores, 36 logical processors, using up to 36 threads
Optimize a model with 13353 rows, 7688 columns and 36665 nonzeros
Model fingerprint: 0xb9011252
Variable types: 7649 continuous, 39 integer (39 binary)
Coefficient statistics:
  Matrix range     [4e-03, 3e+03]
  Objective range  [1e+00, 1e+00]
  Bounds range     [4e-04, 3e+00]
  RHS range        [4e-04, 3e+00]
Presolve removed 6513 rows and 3267 columns
Presolve time: 0.05s
Presolved: 6840 rows, 4421 columns, 23792 nonzeros
Variable types: 4382 continuous, 39 integer (39 binary)
Found heuristic solution: objective 152.8270482
Root relaxation presolved: 6840 rows, 4421 columns, 23792 nonzeros

Root barrier log...

Ordering time: 0.00s

Barrier statistics:
 Dense cols : 39
 AA' NZ     : 5.061e+04
 Factor NZ  : 1.701e+05 (roughly 6 MB of memory)
 Factor Ops : 5.354e+06 (less than 1 second per iteration)
 Threads    : 36

                  Objective                Residual
Iter       Primal          Dual         Primal    Dual     Compl     Time
   0   6.38217254e+05 -1.11444713e+08  4.64e+00 8.69e+02  2.36e+04     0s
   1   6.83429374e+04 -3.07727338e+07  4.37e-01 4.11e-09  3.06e+03     0s
   2   1.75872348e+04 -3.53156333e+06  1.07e-02 9.06e-10  2.60e+02     0s
   3   1.29724612e+04 -1.48269600e+05  5.80e-13 3.45e-11  1.16e+01     0s
   4   2.56465560e+03 -2.13446935e+04  5.33e-13 3.89e-12  1.71e+00     0s
   5   9.14023214e+02 -6.34187204e+03  2.96e-13 3.64e-12  5.20e-01     0s
   6   4.63245260e+02 -2.01649594e+03  2.23e-13 1.82e-12  1.78e-01     0s
   7   3.34054664e+02 -5.95829909e+02  1.82e-13 3.64e-12  6.67e-02     0s
   8   1.89124944e+02 -1.18509647e+02  2.08e-13 1.82e-12  2.21e-02     0s
   9   1.40965408e+02  9.13294606e+00  1.76e-13 3.64e-12  9.46e-03     0s
  10   1.09017165e+02  5.95207242e+01  1.87e-13 3.64e-12  3.55e-03     0s
  11   9.86613401e+01  8.71809599e+01  5.75e-13 3.64e-12  8.23e-04     0s
  12   9.63388272e+01  9.16944426e+01  1.17e-12 3.64e-12  3.33e-04     0s
  13   9.57338350e+01  9.29377222e+01  2.84e-12 3.64e-12  2.01e-04     0s
  14   9.48160200e+01  9.32524486e+01  4.33e-12 1.82e-12  1.12e-04     0s
  15   9.44722178e+01  9.36437738e+01  1.22e-11 3.64e-12  5.94e-05     0s
  16   9.39394379e+01  9.37718271e+01  4.69e-11 3.64e-12  1.20e-05     0s
  17   9.39001268e+01  9.38152978e+01  2.63e-11 3.64e-12  6.08e-06     0s
  18   9.38725622e+01  9.38361482e+01  1.06e-11 3.64e-12  2.61e-06     0s
  19   9.38575845e+01  9.38471428e+01  2.00e-12 3.64e-12  7.49e-07     0s
  20   9.38538653e+01  9.38529195e+01  1.51e-10 1.82e-12  6.78e-08     0s
  21   9.38535165e+01  9.38535153e+01  2.65e-09 1.82e-12  7.63e-11     0s
  22   9.38535160e+01  9.38535160e+01  9.69e-10 3.64e-12  7.63e-14     0s

Barrier solved model in 22 iterations and 0.34 seconds (0.20 work units)
Optimal objective 9.38535160e+01


Root relaxation: objective 9.385352e+01, 549 iterations, 0.26 seconds (0.10 work units)

    Nodes    |    Current Node    |     Objective Bounds      |     Work
 Expl Unexpl |  Obj  Depth IntInf | Incumbent    BestBd   Gap | It/Node Time

     0     0   93.85352    0   11  152.82705   93.85352  38.6%     -    0s
H    0     0                     109.6199006   93.85352  14.4%     -    0s
H    0     0                     109.4278527   96.86110  11.5%     -    0s
     0     0   96.86110    0   10  109.42785   96.86110  11.5%     -    0s
     0     0   97.09240    0   11  109.42785   97.09240  11.3%     -    0s
     0     0   97.09240    0   11  109.42785   97.09240  11.3%     -    0s
     0     0   97.52368    0   10  109.42785   97.52368  10.9%     -    0s
     0     0   97.53069    0   10  109.42785   97.53069  10.9%     -    0s
     0     0   97.53096    0   10  109.42785   97.53096  10.9%     -    0s
     0     0   97.73388    0   11  109.42785   97.73388  10.7%     -    0s
     0     0   97.75799    0   11  109.42785   97.75799  10.7%     -    1s
     0     0   97.76476    0   11  109.42785   97.76476  10.7%     -    1s
     0     0   97.76476    0   11  109.42785   97.76476  10.7%     -    1s
     0     0   97.84318    0   11  109.42785   97.84318  10.6%     -    1s
     0     0   97.84318    0   11  109.42785   97.84318  10.6%     -    1s
     0     0   97.84318    0   11  109.42785   97.84318  10.6%     -    1s
     0     0   98.51920    0   11  109.42785   98.51920  10.0%     -    1s
H    0     0                     105.4191953   98.51920  6.55%     -    2s
     0     2   98.51920    0   11  105.41920   98.51920  6.55%     -    2s
   137    12  105.15227   11    6  105.41920  103.95175  1.39%   102    5s

Cutting planes:
  Gomory: 5
  Implied bound: 22
  MIR: 178
  Relax-and-lift: 1

Explored 155 nodes (16501 simplex iterations) in 5.35 seconds (5.73 work units)
Thread count was 36 (of 36 available processors)

Solution count 4: 105.419 109.428 109.62 152.827 

Optimal solution found (tolerance 1.00e-02)
Best objective 1.054191952800e+02, best bound 1.044352397167e+02, gap 0.9334%

Gurobi 9.5.0 (linux64) logging started Wed Nov  8 21:39:58 2023

Set parameter LogFile to value "/lustre1/scratch/348/vsc34888/JointResearch/05.Models/06.Benchmarking/G.Representative_days_based_on_Line_Benefit_NN_OC_fy_2/RTS24_ByStages_nc30/openStarNet_RTS24_ByStages_nc30.log"
Set parameter Method to value 2
Set parameter MIPFocus to value 1
Set parameter Presolve to value 2
Set parameter RINS to value 100
Set parameter MIPGap to value 0.01
Set parameter Threads to value 36
Set parameter TimeLimit to value 604800
Set parameter IterationLimit to value 760000000
No parameters matching 'relax_integrality' found
Gurobi Optimizer version 9.5.0 build v9.5.0rc5 (linux64)
Thread count: 36 physical cores, 36 logical processors, using up to 36 threads
Optimize a model with 13353 rows, 7649 columns and 31946 nonzeros
Model fingerprint: 0xd5cb2433
Coefficient statistics:
  Matrix range     [4e-03, 3e+03]
  Objective range  [1e+00, 1e+00]
  Bounds range     [4e-04, 3e+00]
  RHS range        [4e-04, 3e+01]
Presolve removed 10564 rows and 3569 columns
Presolve time: 0.01s
Presolved: 2789 rows, 4140 columns, 10258 nonzeros

Ordering time: 0.00s

Barrier statistics:
 AA' NZ     : 7.171e+03
 Factor NZ  : 3.043e+04 (roughly 3 MB of memory)
 Factor Ops : 4.603e+05 (less than 1 second per iteration)
 Threads    : 1

                  Objective                Residual
Iter       Primal          Dual         Primal    Dual     Compl     Time
   0   5.92242415e+05 -3.34166782e+08  5.06e+00 2.40e+03  8.75e+04     0s
   1   7.21164508e+04 -4.84323152e+07  4.67e-01 6.10e-11  8.91e+03     0s
   2   3.72994985e+04 -4.33770391e+06  1.22e-01 7.31e-11  7.47e+02     0s
   3   2.13471678e+04 -2.88733893e+05  3.68e-03 2.93e-11  4.42e+01     0s
   4   9.72357495e+03 -4.59537944e+04  5.62e-04 4.78e-10  7.86e+00     0s
   5   3.02443659e+03 -1.21769362e+04  1.04e-04 1.36e-10  2.14e+00     0s
   6   5.79703273e+02 -1.47706054e+03  7.23e-06 1.46e-11  2.90e-01     0s
   7   3.77676255e+02 -4.51154778e+02  3.57e-06 1.46e-11  1.17e-01     0s
   8   2.43553781e+02 -1.23559531e+02  1.57e-06 3.64e-12  5.17e-02     0s
   9   1.49322748e+02  6.48489158e+01  4.00e-07 1.46e-11  1.19e-02     0s
  10   1.18999496e+02  9.17441960e+01  1.12e-07 3.64e-12  3.84e-03     0s
  11   1.11802400e+02  1.00805995e+02  5.14e-08 1.46e-11  1.55e-03     0s
  12   1.08176687e+02  1.03630701e+02  2.17e-08 1.82e-12  6.40e-04     0s
  13   1.05748329e+02  1.05073565e+02  2.37e-09 1.46e-11  9.50e-05     0s
  14   1.05422100e+02  1.05355743e+02  3.92e-12 5.46e-12  9.34e-06     0s
  15   1.05419482e+02  1.05414870e+02  4.89e-12 3.64e-12  6.49e-07     0s
  16   1.05419219e+02  1.05419121e+02  1.12e-10 1.46e-11  1.38e-08     0s
  17   1.05419195e+02  1.05419195e+02  3.75e-13 1.46e-11  1.93e-14     0s

Barrier solved model in 17 iterations and 0.05 seconds (0.04 work units)
Optimal objective 1.05419195e+02

Crossover log...

     377 DPushes remaining with DInf 0.0000000e+00                 0s
       0 DPushes remaining with DInf 0.0000000e+00                 0s

     147 PPushes remaining with PInf 0.0000000e+00                 0s
       0 PPushes remaining with PInf 0.0000000e+00                 0s

  Push phase complete: Pinf 0.0000000e+00, Dinf 1.2314270e-12      0s

Iteration    Objective       Primal Inf.    Dual Inf.      Time
     163    1.0541920e+02   0.000000e+00   0.000000e+00      0s

Use crossover to convert LP symmetric solution to basic solution...
Crossover log...

       0 DPushes remaining with DInf 0.0000000e+00                 0s

      92 PPushes remaining with PInf 0.0000000e+00                 0s
       0 PPushes remaining with PInf 0.0000000e+00                 0s

  Push phase complete: Pinf 0.0000000e+00, Dinf 1.7621757e-12      0s

Iteration    Objective       Primal Inf.    Dual Inf.      Time
     267    1.0541920e+02   0.000000e+00   0.000000e+00      0s

Solved in 267 iterations and 0.07 seconds (0.06 work units)
Optimal objective  1.054191953e+02
